100 100 100
50
84 65 70
11 84 96
36 10 34
68 61 58
64 73 56
96 78 74
30 23 17
46 27 47
99 89 70
73 81 91
88 69 64
47 95 99
20 95 93
23 8 32
67 73 55
69 46 95
57 99 55
52 79 70
59 85 79
45 100 84
85 99 78
93 93 38
82 43 95
98 38 97
69 90 72
66 90 25
65 50 95
37 10 21
84 17 69
56 88 96
94 77 50
63 73 99
51 97 51
38 74 95
23 42 26
72 86 64
6 86 67
86 25 88
5 74 88
92 90 10
71 50 65
24 80 93
59 97 92
66 77 86
47 82 77
50 53 62
100 68 81
92 80 39
83 55 99
52 72 66
